c WARNING: for repeatability, setting FPU to use double precision
d VARIABLES            219702       
d CONSTRAINTS          813444       
c ============================[ Problem Statistics ]=============================
c |                                                                             |
c |  Number of variables:        219702                                         |
c |  Number of clauses:          813444                                         |
c |  Parse time:                   0.14 s                                       |
c |                                                                             |
c ============================[ Search Statistics ]==============================
c | Conflicts |          ORIGINAL         |          LEARNT          | Progress |
c |           |    Vars  Clauses Literals |    Limit  Clauses Lit/Cl |          |
c ===============================================================================
c |       100 |  181843   716210  1795643 |   262610      100     15 | 17.232 % |
c |       250 |  181843   716210  1795643 |   288871      250     20 | 17.232 % |
c |       475 |  181843   716210  1795643 |   317758      475     14 | 17.232 % |
c |       812 |  181843   716210  1795643 |   349534      812     11 | 17.232 % |
c |      1318 |  181843   716210  1795643 |   384487     1318     34 | 17.232 % |
c |      2077 |  181843   716210  1795643 |   422936     2077     32 | 17.232 % |
c |      3216 |  181843   716210  1795643 |   465230     3216     44 | 17.232 % |
c |      4924 |  181843   716210  1795643 |   511753     4924     45 | 17.232 % |
c |      7486 |  181843   716210  1795643 |   562928     7486     56 | 17.232 % |
c |     11330 |  181843   716210  1795643 |   619221    11330     65 | 17.232 % |
c |     17096 |  181843   716210  1795643 |   681143    17096     70 | 17.232 % |
c |     25745 |  181843   716210  1795643 |   749257    25745     72 | 17.232 % |
c |     38719 |  181843   716210  1795643 |   824183    38719     89 | 17.232 % |
c |     58180 |  181843   716210  1795643 |   906602    58180     98 | 17.232 % |
c |     87372 |  181843   716210  1795643 |   997262    87372    119 | 17.232 % |
c |    131161 |  181843   716210  1795643 |  1096988   131161    115 | 17.232 % |
c |    196845 |  181843   716210  1795643 |  1206687   196845    131 | 17.232 % |
c |    295371 |  181843   716210  1795643 |  1327356   295371    158 | 17.232 % |
c |    443160 |  181843   716210  1795643 |  1460091   443160    147 | 17.232 % |
c |    664843 |  181843   716210  1795643 |  1606100   664843    153 | 17.232 % |
c |    997368 |  181843   716210  1795643 |  1766711   997368    154 | 17.232 % |
c |   1496156 |  181843   716210  1795643 |  1943382  1496156    157 | 17.232 % |
c |   2244338 |  181842   716206  1795633 |  2137720   299899    165 | 17.232 % |
c ===============================================================================
c restarts              : 4578
c conflicts             : 2637120        (1470 /sec)
c decisions             : 6947933        (0.00 % random) (3873 /sec)
c propagations          : 4002701702     (2231096 /sec)
c conflict literals     : 411527634      (47.83 % deleted)
d RESTARTS             4578
d FAILURES             2637120      
d NODES                6947933      
d BACKTRACKS           6947933      
d PROPAGATIONS         4002701702   
d NOGOODSIZE           156.05 
d MEMORY               1660.00 
d TIME                 1794.05 

s UNKNOWN
